
Gurobi 8.1.1 (linux64) logging started Tue Apr 20 15:52:44 2021

Academic license - for non-commercial use only
Presolve added 902 rows and 0 columns
Presolve removed 0 rows and 148 columns
Presolve time: 0.05s
Optimize a model with 148 rows, 548 columns and 675 nonzeros
Model has 361 general constraints
Variable types: 32 continuous, 516 integer (490 binary)
Coefficient statistics:
  Matrix range     [2e-08, 2e+00]
  Objective range  [1e+00, 1e+00]
  Bounds range     [1e+00, 5e+01]
  RHS range        [1e+00, 2e+01]
Presolve added 902 rows and 0 columns
Presolve removed 0 rows and 148 columns
Presolve time: 0.01s
Presolved: 1050 rows, 400 columns, 4299 nonzeros
Presolved model has 20 SOS constraint(s)
Variable types: 24 continuous, 376 integer (376 binary)
Found heuristic solution: objective 1.9610200
Found heuristic solution: objective 1.5858014

Root relaxation: objective 4.650485e-01, 315 iterations, 0.01 seconds

    Nodes    |    Current Node    |     Objective Bounds      |     Work
 Expl Unexpl |  Obj  Depth IntInf | Incumbent    BestBd   Gap | It/Node Time

     0     0    0.57837    0   18    1.58580    0.57837  63.5%     -    0s
     0     0    0.59884    0   13    1.58580    0.59884  62.2%     -    0s
     0     0    0.60173    0    9    1.58580    0.60173  62.1%     -    0s
H    0     0                       0.6026133    0.60173  0.15%     -    0s
     0     0     cutoff    0         0.60261    0.60261  0.00%     -    0s

Cutting planes:
  Gomory: 2
  Implied bound: 1

Explored 1 nodes (412 simplex iterations) in 0.07 seconds
Thread count was 8 (of 8 available processors)

Solution count 3: 0.602613 1.5858 1.96102 

Optimal solution found (tolerance 1.00e-04)
Best objective 6.026133052487e-01, best bound 6.026133052487e-01, gap 0.0000%

Gurobi 8.1.1 (linux64) logging started Tue Apr 20 15:52:45 2021

Academic license - for non-commercial use only
Presolve added 1232 rows and 0 columns
Presolve removed 0 rows and 183 columns
Presolve time: 0.01s
Optimize a model with 152 rows, 823 columns and 995 nonzeros
Model has 611 general constraints
Variable types: 34 continuous, 789 integer (762 binary)
Coefficient statistics:
  Matrix range     [2e-08, 2e+00]
  Objective range  [1e+00, 1e+00]
  Bounds range     [1e+00, 5e+01]
  RHS range        [1e+00, 2e+01]
Presolve added 1232 rows and 0 columns
Presolve removed 0 rows and 183 columns
Presolve time: 0.01s
Presolved: 1384 rows, 640 columns, 3829 nonzeros
Presolved model has 20 SOS constraint(s)
Variable types: 25 continuous, 615 integer (615 binary)

Root relaxation: objective 2.608610e-01, 786 iterations, 0.02 seconds

    Nodes    |    Current Node    |     Objective Bounds      |     Work
 Expl Unexpl |  Obj  Depth IntInf | Incumbent    BestBd   Gap | It/Node Time

     0     0    0.26086    0  108          -    0.26086      -     -    0s
H    0     0                       0.5252312    0.26086  50.3%     -    0s
H    0     0                       0.5248377    0.26086  50.3%     -    0s
     0     0    0.30154    0  134    0.52484    0.30154  42.5%     -    0s
     0     0    0.30154    0   45    0.52484    0.30154  42.5%     -    0s
H    0     0                       0.4685532    0.30154  35.6%     -    0s
H    0     0                       0.4685531    0.30154  35.6%     -    0s
H    0     0                       0.4615262    0.30154  34.7%     -    0s
H    0     0                       0.3655545    0.30154  17.5%     -    0s
H    0     0                       0.3588163    0.30154  16.0%     -    0s
     0     0    0.30182    0   93    0.35882    0.30182  15.9%     -    0s
H    0     0                       0.3588163    0.30182  15.9%     -    0s
H    0     0                       0.3586619    0.30182  15.8%     -    0s
H    0     0                       0.3586144    0.30182  15.8%     -    0s
H    0     0                       0.3585590    0.30182  15.8%     -    0s
H    0     0                       0.3585585    0.30182  15.8%     -    0s
     0     0    0.35270    0  102    0.35856    0.35270  1.64%     -    0s
     0     0    0.35462    0  102    0.35856    0.35462  1.10%     -    0s
     0     2    0.35462    0  102    0.35856    0.35462  1.10%     -    0s

Cutting planes:
  Gomory: 1
  Implied bound: 36
  MIR: 54
  Flow cover: 1
  Zero half: 7

Explored 53 nodes (2443 simplex iterations) in 0.16 seconds
Thread count was 8 (of 8 available processors)

Solution count 10: 0.358558 0.358559 0.358614 ... 0.468553

Optimal solution found (tolerance 1.00e-04)
Best objective 3.585584956587e-01, best bound 3.585584956587e-01, gap 0.0000%

Gurobi 8.1.1 (linux64) logging started Tue Apr 20 15:52:45 2021

Academic license - for non-commercial use only
Presolve added 1596 rows and 0 columns
Presolve removed 0 rows and 271 columns
Presolve time: 0.01s
Optimize a model with 156 rows, 1198 columns and 1415 nonzeros
Model has 961 general constraints
Variable types: 36 continuous, 1162 integer (1134 binary)
Coefficient statistics:
  Matrix range     [2e-08, 2e+00]
  Objective range  [1e+00, 1e+00]
  Bounds range     [1e+00, 5e+01]
  RHS range        [1e+00, 2e+01]
Presolve added 1596 rows and 0 columns
Presolve removed 0 rows and 271 columns
Presolve time: 0.01s
Presolved: 1752 rows, 927 columns, 4937 nonzeros
Presolved model has 20 SOS constraint(s)
Variable types: 25 continuous, 902 integer (902 binary)

Root relaxation: objective 1.817475e-01, 874 iterations, 0.02 seconds

    Nodes    |    Current Node    |     Objective Bounds      |     Work
 Expl Unexpl |  Obj  Depth IntInf | Incumbent    BestBd   Gap | It/Node Time

     0     0    0.18175    0  115          -    0.18175      -     -    0s
H    0     0                       0.6957792    0.18175  73.9%     -    0s
H    0     0                       0.5167532    0.18175  64.8%     -    0s
     0     0    0.19927    0   97    0.51675    0.19927  61.4%     -    0s
     0     0    0.19927    0   78    0.51675    0.19927  61.4%     -    0s
H    0     0                       0.5161217    0.19927  61.4%     -    0s
H    0     0                       0.4982347    0.19927  60.0%     -    0s
H    0     0                       0.4948949    0.19927  59.7%     -    0s
     0     0    0.19931    0   97    0.49489    0.19931  59.7%     -    0s
H    0     0                       0.4923414    0.19931  59.5%     -    0s
H    0     0                       0.3994370    0.19931  50.1%     -    0s
     0     0    0.19969    0   67    0.39944    0.19969  50.0%     -    0s
H    0     0                       0.3855008    0.19969  48.2%     -    0s
H    0     0                       0.3318434    0.19969  39.8%     -    0s
     0     0    0.19974    0  100    0.33184    0.19974  39.8%     -    0s
H    0     0                       0.3318433    0.19974  39.8%     -    0s
H    0     0                       0.3142311    0.19974  36.4%     -    0s
     0     0    0.19983    0   84    0.31423    0.19983  36.4%     -    0s
H    0     0                       0.3071530    0.19983  34.9%     -    0s
     0     0    0.22430    0  126    0.30715    0.22430  27.0%     -    0s
     0     0    0.22432    0  135    0.30715    0.22432  27.0%     -    0s
     0     0    0.22432    0  146    0.30715    0.22432  27.0%     -    0s
     0     0    0.22432    0  146    0.30715    0.22432  27.0%     -    0s
     0     2    0.22432    0  146    0.30715    0.22432  27.0%     -    0s
H   32    40                       0.3071517    0.25268  17.7%  29.0    0s
H   85    72                       0.3071517    0.25446  17.2%  27.7    0s
H  271    93                       0.3071516    0.26091  15.1%  26.5    0s
*  302    96              12       0.3070699    0.26091  15.0%  26.4    0s
H  413    89                       0.3070693    0.27090  11.8%  26.4    0s

Cutting planes:
  Gomory: 3
  Implied bound: 43
  MIR: 75
  Inf proof: 1
  Zero half: 19

Explored 821 nodes (22089 simplex iterations) in 0.32 seconds
Thread count was 8 (of 8 available processors)

Solution count 10: 0.307069 0.30707 0.307152 ... 0.385501

Optimal solution found (tolerance 1.00e-04)
Best objective 3.070692545005e-01, best bound 3.070692545005e-01, gap 0.0000%

Gurobi 8.1.1 (linux64) logging started Tue Apr 20 15:52:45 2021

Academic license - for non-commercial use only
Presolve added 2030 rows and 0 columns
Presolve removed 0 rows and 389 columns
Presolve time: 0.02s
Optimize a model with 160 rows, 1673 columns and 1935 nonzeros
Model has 1411 general constraints
Variable types: 38 continuous, 1635 integer (1606 binary)
Coefficient statistics:
  Matrix range     [2e-08, 2e+00]
  Objective range  [1e+00, 1e+00]
  Bounds range     [1e+00, 5e+01]
  RHS range        [1e+00, 2e+01]
Presolve added 2030 rows and 0 columns
Presolve removed 0 rows and 389 columns
Presolve time: 0.02s
Presolved: 2190 rows, 1284 columns, 6257 nonzeros
Presolved model has 20 SOS constraint(s)
Variable types: 25 continuous, 1259 integer (1259 binary)

Root relaxation: objective 1.394525e-01, 1248 iterations, 0.04 seconds

    Nodes    |    Current Node    |     Objective Bounds      |     Work
 Expl Unexpl |  Obj  Depth IntInf | Incumbent    BestBd   Gap | It/Node Time

     0     0    0.13945    0  124          -    0.13945      -     -    0s
H    0     0                       0.4975899    0.13945  72.0%     -    0s
     0     0    0.14953    0  111    0.49759    0.14953  69.9%     -    0s
     0     0    0.14953    0   82    0.49759    0.14953  69.9%     -    0s
H    0     0                       0.4875065    0.14953  69.3%     -    0s
H    0     0                       0.4336708    0.14953  65.5%     -    0s
H    0     0                       0.3596541    0.14953  58.4%     -    0s
H    0     0                       0.3596540    0.14953  58.4%     -    0s
     0     0    0.14954    0   72    0.35965    0.14954  58.4%     -    0s
     0     0    0.14973    0   92    0.35965    0.14973  58.4%     -    0s
     0     0    0.17934    0  101    0.35965    0.17934  50.1%     -    0s
H    0     0                       0.3460717    0.17934  48.2%     -    0s
H    0     0                       0.3460717    0.17934  48.2%     -    0s
     0     0    0.17934    0   94    0.34607    0.17934  48.2%     -    0s
H    0     0                       0.3204091    0.17934  44.0%     -    0s
     0     0    0.17934    0  101    0.32041    0.17934  44.0%     -    0s
     0     0    0.17934    0  100    0.32041    0.17934  44.0%     -    0s
     0     2    0.17934    0   98    0.32041    0.17934  44.0%     -    0s
H  168   151                       0.3187727    0.17934  43.7%  89.4    0s
H  212   181                       0.3186196    0.17934  43.7%  82.6    0s
H  224   188                       0.2998457    0.17934  40.2%  79.4    0s
*  229   180              26       0.2892408    0.17934  38.0%  78.4    0s
H  313   200                       0.2856989    0.17934  37.2%  73.4    0s
H  331   184                       0.2782319    0.17934  35.5%  70.7    0s
H  528   228                       0.2782306    0.19420  30.2%  66.1    0s
H  774   272                       0.2747423    0.21859  20.4%  63.5    0s
H 1073   316                       0.2747414    0.22242  19.0%  64.1    0s
* 1858   299              11       0.2747413    0.24023  12.6%  66.6    0s
H 2150   225                       0.2746948    0.24510  10.8%  67.8    0s

Cutting planes:
  Gomory: 5
  Cover: 2
  Implied bound: 331
  MIR: 10
  Inf proof: 23
  Zero half: 44

Explored 2708 nodes (181897 simplex iterations) in 1.08 seconds
Thread count was 8 (of 8 available processors)

Solution count 10: 0.274695 0.274741 0.274741 ... 0.31862

Optimal solution found (tolerance 1.00e-04)
Best objective 2.746948409254e-01, best bound 2.746948409254e-01, gap 0.0000%

Gurobi 8.1.1 (linux64) logging started Tue Apr 20 15:52:47 2021

Academic license - for non-commercial use only
Presolve added 2536 rows and 0 columns
Presolve removed 0 rows and 535 columns
Presolve time: 0.02s
Optimize a model with 164 rows, 2248 columns and 2555 nonzeros
Model has 1961 general constraints
Variable types: 40 continuous, 2208 integer (2178 binary)
Coefficient statistics:
  Matrix range     [2e-08, 2e+00]
  Objective range  [1e+00, 1e+00]
  Bounds range     [1e+00, 5e+01]
  RHS range        [1e+00, 2e+01]
Presolve added 2536 rows and 0 columns
Presolve removed 0 rows and 535 columns
Presolve time: 0.02s
Presolved: 2700 rows, 1713 columns, 7793 nonzeros
Presolved model has 20 SOS constraint(s)
Variable types: 25 continuous, 1688 integer (1688 binary)

Root relaxation: objective 1.131279e-01, 1262 iterations, 0.04 seconds

    Nodes    |    Current Node    |     Objective Bounds      |     Work
 Expl Unexpl |  Obj  Depth IntInf | Incumbent    BestBd   Gap | It/Node Time

     0     0    0.11313    0  120          -    0.11313      -     -    0s
H    0     0                       0.5019777    0.11313  77.5%     -    0s
H    0     0                       0.5019777    0.11313  77.5%     -    0s
     0     0    0.11982    0  132    0.50198    0.11982  76.1%     -    0s
     0     0    0.11982    0   93    0.50198    0.11982  76.1%     -    0s
H    0     0                       0.4376388    0.11982  72.6%     -    0s
H    0     0                       0.3965807    0.11982  69.8%     -    0s
     0     0    0.11982    0   95    0.39658    0.11982  69.8%     -    0s
     0     0    0.11982    0   94    0.39658    0.11982  69.8%     -    0s
     0     0    0.11982    0  107    0.39658    0.11982  69.8%     -    0s
     0     0    0.11982    0   98    0.39658    0.11982  69.8%     -    0s
     0     0    0.11982    0  117    0.39658    0.11982  69.8%     -    0s
     0     0    0.11982    0  114    0.39658    0.11982  69.8%     -    0s
H    0     0                       0.3245398    0.11982  63.1%     -    0s
     0     0    0.11982    0  109    0.32454    0.11982  63.1%     -    0s
     0     0    0.11982    0  107    0.32454    0.11982  63.1%     -    0s
     0     2    0.11982    0  105    0.32454    0.11982  63.1%     -    0s
H   77    78                       0.3245371    0.16402  49.5%  78.7    0s
H  140   129                       0.3092992    0.16402  47.0%  72.6    0s
H  329   244                       0.3086435    0.17200  44.3%  72.8    0s
H  397   271                       0.2855183    0.17200  39.8%  70.9    0s
H  836   518                       0.2855156    0.17379  39.1%  61.1    0s
H  860   528                       0.2850994    0.17379  39.0%  61.2    0s
H  918   545                       0.2838442    0.17767  37.4%  60.2    0s
H  919   545                       0.2838429    0.17767  37.4%  60.1    0s
* 1097   629              27       0.2828013    0.17767  37.2%  60.4    0s
* 1098   629              27       0.2828012    0.17767  37.2%  60.3    0s
H 1319   731                       0.2828012    0.18088  36.0%  61.9    0s
H 1322   730                       0.2823823    0.18088  35.9%  61.9    0s
H 1696   875                       0.2823607    0.18116  35.8%  63.2    1s
H 1742   859                       0.2823607    0.18116  35.8%  63.6    1s
H 1748   823                       0.2823607    0.18116  35.8%  63.6    1s
H 1797   809                       0.2774213    0.18116  34.7%  64.0    1s
H 1837   788                       0.2747437    0.18116  34.1%  64.1    1s
H 1896   778                       0.2747423    0.18116  34.1%  64.4    1s
H 3149   850                       0.2746952    0.18600  32.3%  63.5    2s
H 6594  2042                       0.2745763    0.19772  28.0%  64.4    3s
 12313  3310 infeasible   28         0.27458    0.20723  24.5%  67.7    5s
H19796  4126                       0.2745754    0.21886  20.3%  74.9    7s
*22194  4065              29       0.2745580    0.22054  19.7%  76.9    8s
H22994  4143                       0.2745560    0.22266  18.9%  77.4    8s
 28646  3618    0.26571   28   59    0.27456    0.23281  15.2%  81.8   10s
*43052   549              29       0.2745547    0.26635  2.99%  80.7   14s

Explored 43939 nodes (3527919 simplex iterations) in 14.93 seconds
Thread count was 8 (of 8 available processors)

Solution count 10: 0.274555 0.274556 0.274558 ... 0.282361

Optimal solution found (tolerance 1.00e-04)
Best objective 2.745546639085e-01, best bound 2.745546639085e-01, gap 0.0000%

Gurobi 8.1.1 (linux64) logging started Tue Apr 20 15:53:02 2021

Academic license - for non-commercial use only
Presolve added 3114 rows and 0 columns
Presolve removed 0 rows and 709 columns
Presolve time: 0.02s
Optimize a model with 168 rows, 2923 columns and 3275 nonzeros
Model has 2611 general constraints
Variable types: 42 continuous, 2881 integer (2850 binary)
Coefficient statistics:
  Matrix range     [2e-08, 2e+00]
  Objective range  [1e+00, 1e+00]
  Bounds range     [1e+00, 5e+01]
  RHS range        [1e+00, 2e+01]
Presolve added 3114 rows and 0 columns
Presolve removed 0 rows and 709 columns
Presolve time: 0.02s
Presolved: 3282 rows, 2214 columns, 9545 nonzeros
Presolved model has 20 SOS constraint(s)
Variable types: 25 continuous, 2189 integer (2189 binary)

Root relaxation: objective 9.516500e-02, 1018 iterations, 0.04 seconds

    Nodes    |    Current Node    |     Objective Bounds      |     Work
 Expl Unexpl |  Obj  Depth IntInf | Incumbent    BestBd   Gap | It/Node Time

     0     0    0.09516    0  126          -    0.09516      -     -    0s
H    0     0                       0.5976633    0.09516  84.1%     -    0s
     0     0    0.09984    0  132    0.59766    0.09984  83.3%     -    0s
     0     0    0.09984    0  101    0.59766    0.09984  83.3%     -    0s
H    0     0                       0.4631465    0.09984  78.4%     -    0s
H    0     0                       0.4461516    0.09984  77.6%     -    0s
     0     0    0.09984    0   94    0.44615    0.09984  77.6%     -    0s
H    0     0                       0.4214654    0.09984  76.3%     -    0s
     0     0    0.09984    0  103    0.42147    0.09984  76.3%     -    0s
H    0     0                       0.3762038    0.09984  73.5%     -    0s
H    0     0                       0.3700060    0.09984  73.0%     -    0s
     0     0    0.09985    0  113    0.37001    0.09985  73.0%     -    0s
     0     0    0.09985    0  105    0.37001    0.09985  73.0%     -    0s
     0     0    0.09985    0  109    0.37001    0.09985  73.0%     -    0s
     0     0    0.09985    0  101    0.37001    0.09985  73.0%     -    0s
     0     0    0.09985    0   90    0.37001    0.09985  73.0%     -    0s
     0     0    0.09985    0   96    0.37001    0.09985  73.0%     -    0s
     0     0    0.09985    0  127    0.37001    0.09985  73.0%     -    0s
     0     0    0.09985    0  124    0.37001    0.09985  73.0%     -    0s
     0     2    0.09985    0  123    0.37001    0.09985  73.0%     -    0s
H   33    36                       0.3393466    0.11853  65.1%   193    0s
H   54    52                       0.3163581    0.12015  62.0%   169    0s
H   75    60                       0.2861512    0.12015  58.0%   154    0s
H  642   498                       0.2861506    0.13566  52.6%  77.9    1s
H  688   534                       0.2861506    0.13566  52.6%  77.5    1s
H 1191   851                       0.2800206    0.14404  48.6%  68.0    1s
H 1196   838                       0.2746989    0.14404  47.6%  67.8    1s
H 1401   976                       0.2745823    0.14404  47.5%  66.4    1s
H 1570  1040                       0.2729995    0.14404  47.2%  68.9    2s
H 1614  1006                       0.2729995    0.14404  47.2%  70.1    2s
H 1713   977                       0.2729982    0.14404  47.2%  71.2    2s
H 2059   956                       0.2729981    0.14404  47.2%  72.5    2s
H 3546   943                       0.2729155    0.19321  29.2%  69.1    3s
H 3978   945                       0.2722849    0.19585  28.1%  69.6    3s
H 4029   944                       0.2700015    0.19934  26.2%  69.5    4s
  6116  1440    0.22739   27   94    0.27000    0.22612  16.3%  65.1    5s
* 9906  2064              31       0.2700006    0.23690  12.3%  62.9    6s
 19360  1163    0.26133   21   70    0.27000    0.25394  5.95%  65.6   10s

Explored 22167 nodes (1447439 simplex iterations) in 10.83 seconds
Thread count was 8 (of 8 available processors)

Solution count 10: 0.270001 0.270002 0.272285 ... 0.274699

Optimal solution found (tolerance 1.00e-04)
Best objective 2.700005622526e-01, best bound 2.700005622526e-01, gap 0.0000%

Gurobi 8.1.1 (linux64) logging started Tue Apr 20 15:53:13 2021

Academic license - for non-commercial use only
Presolve added 3764 rows and 0 columns
Presolve removed 0 rows and 911 columns
Presolve time: 0.03s
Optimize a model with 172 rows, 3698 columns and 4095 nonzeros
Model has 3361 general constraints
Variable types: 44 continuous, 3654 integer (3622 binary)
Coefficient statistics:
  Matrix range     [2e-08, 2e+00]
  Objective range  [1e+00, 1e+00]
  Bounds range     [1e+00, 5e+01]
  RHS range        [1e+00, 2e+01]
Presolve added 3764 rows and 0 columns
Presolve removed 0 rows and 911 columns
Presolve time: 0.02s
Presolved: 3936 rows, 2787 columns, 11513 nonzeros
Presolved model has 20 SOS constraint(s)
Variable types: 25 continuous, 2762 integer (2762 binary)

Root relaxation: objective 8.212251e-02, 1517 iterations, 0.06 seconds

    Nodes    |    Current Node    |     Objective Bounds      |     Work
 Expl Unexpl |  Obj  Depth IntInf | Incumbent    BestBd   Gap | It/Node Time

     0     0    0.08212    0  147          -    0.08212      -     -    0s
H    0     0                       0.4738176    0.08212  82.7%     -    0s
H    0     0                       0.4607205    0.08212  82.2%     -    0s
H    0     0                       0.4110959    0.08212  80.0%     -    0s
H    0     0                       0.4104414    0.08212  80.0%     -    0s
     0     0    0.08558    0  129    0.41044    0.08558  79.1%     -    0s
H    0     0                       0.3592850    0.08558  76.2%     -    0s
     0     0    0.08558    0  129    0.35929    0.08558  76.2%     -    0s
     0     0    0.08558    0  126    0.35929    0.08558  76.2%     -    0s
     0     0    0.08558    0   96    0.35929    0.08558  76.2%     -    0s
     0     0    0.08559    0  108    0.35929    0.08559  76.2%     -    0s
     0     0    0.08559    0  105    0.35929    0.08559  76.2%     -    0s
     0     0    0.08559    0  112    0.35929    0.08559  76.2%     -    0s
     0     0    0.08559    0   88    0.35929    0.08559  76.2%     -    0s
     0     0    0.08559    0   97    0.35929    0.08559  76.2%     -    0s
     0     0    0.08559    0   89    0.35929    0.08559  76.2%     -    0s
H    0     0                       0.3569789    0.08559  76.0%     -    0s
     0     0    0.08559    0   89    0.35698    0.08559  76.0%     -    0s
     0     0    0.08559    0  100    0.35698    0.08559  76.0%     -    0s
H    0     0                       0.3190409    0.08559  73.2%     -    0s
     0     0    0.08559    0   95    0.31904    0.08559  73.2%     -    0s
     0     0    0.08559    0   95    0.31904    0.08559  73.2%     -    0s
     0     2    0.08559    0   95    0.31904    0.08559  73.2%     -    0s
H  118   105                       0.3092169    0.15292  50.5%   113    1s
H  198   159                       0.2882022    0.15292  46.9%   100    1s
H  831   594                       0.2857327    0.15623  45.3%  61.8    1s
H  832   594                       0.2857323    0.15623  45.3%  61.7    1s
H 1644  1006                       0.2692865    0.16871  37.3%  64.7    3s
  3086  1036     cutoff   26         0.26929    0.17280  35.8%  69.0    5s
  9616  1386    0.25030   27   78    0.26929    0.20486  23.9%  75.6   10s

Explored 16434 nodes (1184153 simplex iterations) in 14.33 seconds
Thread count was 8 (of 8 available processors)

Solution count 10: 0.269286 0.285732 0.285733 ... 0.411096

Optimal solution found (tolerance 1.00e-04)
Best objective 2.692864891240e-01, best bound 2.692864891240e-01, gap 0.0000%

Gurobi 8.1.1 (linux64) logging started Tue Apr 20 15:53:27 2021

Academic license - for non-commercial use only
Presolve added 4486 rows and 0 columns
Presolve removed 0 rows and 1141 columns
Presolve time: 0.03s
Optimize a model with 176 rows, 4573 columns and 5015 nonzeros
Model has 4211 general constraints
Variable types: 46 continuous, 4527 integer (4494 binary)
Coefficient statistics:
  Matrix range     [2e-08, 2e+00]
  Objective range  [1e+00, 1e+00]
  Bounds range     [1e+00, 5e+01]
  RHS range        [1e+00, 2e+01]
Presolve added 4486 rows and 0 columns
Presolve removed 0 rows and 1141 columns
Presolve time: 0.03s
Presolved: 4662 rows, 3432 columns, 13697 nonzeros
Presolved model has 20 SOS constraint(s)
Variable types: 25 continuous, 3407 integer (3407 binary)

Root relaxation: objective 7.222597e-02, 1864 iterations, 0.07 seconds

    Nodes    |    Current Node    |     Objective Bounds      |     Work
 Expl Unexpl |  Obj  Depth IntInf | Incumbent    BestBd   Gap | It/Node Time

     0     0    0.07223    0  148          -    0.07223      -     -    0s
H    0     0                       0.4913182    0.07223  85.3%     -    0s
     0     0    0.07489    0  177    0.49132    0.07489  84.8%     -    0s
H    0     0                       0.4718762    0.07489  84.1%     -    0s
     0     0    0.07489    0  163    0.47188    0.07489  84.1%     -    0s
     0     0    0.07489    0   99    0.47188    0.07489  84.1%     -    0s
H    0     0                       0.4471424    0.07489  83.3%     -    0s
H    0     0                       0.4445606    0.07489  83.2%     -    0s
     0     0    0.07489    0  126    0.44456    0.07489  83.2%     -    0s
     0     0    0.07489    0  116    0.44456    0.07489  83.2%     -    0s
     0     0    0.07489    0  110    0.44456    0.07489  83.2%     -    0s
     0     0    0.07489    0  106    0.44456    0.07489  83.2%     -    0s
H    0     0                       0.4077154    0.07489  81.6%     -    0s
     0     0    0.07489    0  123    0.40772    0.07489  81.6%     -    0s
     0     0    0.07489    0   88    0.40772    0.07489  81.6%     -    0s
     0     0    0.07489    0   87    0.40772    0.07489  81.6%     -    0s
H    0     0                       0.3569308    0.07489  79.0%     -    0s
     0     0    0.07489    0   88    0.35693    0.07489  79.0%     -    0s
     0     0    0.07489    0  104    0.35693    0.07489  79.0%     -    0s
     0     0    0.07489    0  140    0.35693    0.07489  79.0%     -    0s
H    0     0                       0.3552475    0.07489  78.9%     -    0s
H    0     0                       0.3383828    0.07489  77.9%     -    0s
     0     0    0.07489    0  117    0.33838    0.07489  77.9%     -    0s
     0     0    0.07489    0  117    0.33838    0.07489  77.9%     -    0s
H    0     2                       0.3383788    0.07489  77.9%     -    0s
     0     2    0.07489    0  117    0.33838    0.07489  77.9%     -    0s
H  161   158                       0.3349262    0.14908  55.5%   106    1s
H  167   159                       0.3348121    0.14908  55.5%   108    1s
H  315   271                       0.3246959    0.14908  54.1%  91.6    1s
H  402   330                       0.3242771    0.14908  54.0%  87.3    1s
H  412   344                       0.3194422    0.14908  53.3%  85.7    1s
H  498   412                       0.3123306    0.14944  52.2%  80.9    1s
H  540   435                       0.3109222    0.14944  51.9%  80.7    1s
H  580   457                       0.3087011    0.14944  51.6%  79.5    1s
H  599   408                       0.2736868    0.14944  45.4%  77.9    1s
H 1217   830                       0.2736841    0.14948  45.4%  65.7    2s
H 1572  1047                       0.2736832    0.14948  45.4%  64.7    3s
H 1680  1035                       0.2718700    0.14948  45.0%  65.5    3s
H 1684   991                       0.2713009    0.14948  44.9%  65.7    3s
H 2177  1038                       0.2695857    0.15569  42.2%  72.0    4s
  2186  1047    0.20664   24   89    0.26959    0.15569  42.2%  72.1    5s
H 4313  1094                       0.2692909    0.17180  36.2%  74.3    7s
H 6056  1717                       0.2665508    0.17764  33.4%  76.7    9s
  6311  1819    0.23349   46   47    0.26655    0.17764  33.4%  77.1   10s
H 9163  2252                       0.2665508    0.18791  29.5%  81.4   13s
*10660  2300              51       0.2665504    0.19354  27.4%  84.7   14s
 11204  2296     cutoff   36         0.26655    0.19533  26.7%  86.1   15s
 17208  2049    0.25088   23  116    0.26655    0.22191  16.7%  93.7   20s
 23699  2386    0.25410   20  105    0.26655    0.23710  11.0%  88.2   25s
 29561  2187     cutoff   31         0.26655    0.24552  7.89%  84.7   30s

Cutting planes:
  Gomory: 3
  Implied bound: 16
  MIR: 5
  Inf proof: 1
  Zero half: 19

Explored 36658 nodes (3011561 simplex iterations) in 34.56 seconds
Thread count was 8 (of 8 available processors)

Solution count 10: 0.26655 0.266551 0.266551 ... 0.273687

Optimal solution found (tolerance 1.00e-04)
Best objective 2.665504318457e-01, best bound 2.665504318457e-01, gap 0.0000%
